26
91
928
2070
3
0
0
0
5
2111
18174
209
17
75
1090
0
11638
15
0
7
54
27
763
3038
26
1
108
12219
75
84197
470
49381
8
1196
19114
5561
767
6
248
2
161
0
35
7
4
0
157
328804
3
3558
0
28
46
4268
950
0
9
792
5
9
2536
0
327
295
0
777
63
0
782
5
74
39739
1778
138
1706
2
0
11
4
512
1
57818
2705
104
0
906
1852
1216
1717
525
0
85
39330
26605
8
257
0
477
8127
0
